nb_dom_cuts = 832
root_relax = 416.53
QCR_time = 15.0192
nb_dom_cuts = 832
opt = true
obj_val = 416.04
solved_time = 0.0975
explored_nodes = 836
XPARAM_Preprocessing_NumPass                   0
CPXPARAM_Output_CloneLog                         -1
CPXPARAM_MIP_Cuts_Cliques                        -1
CPXPARAM_Preprocessing_CoeffReduce               0
CPXPARAM_MIP_Cuts_Covers                         -1
CPXPARAM_Preprocessing_BoundStrength             0
CPXPARAM_Preprocessing_Relax                     0
CPXPARAM_MIP_Cuts_FlowCovers                     -1
CPXPARAM_MIP_Cuts_Implied                        -1
CPXPARAM_MIP_Strategy_Probe                      -1
CPXPARAM_MIP_Cuts_GUBCovers                      -1
CPXPARAM_MIP_Cuts_Gomory                         -1
CPXPARAM_MIP_Cuts_PathCut                        -1
CPXPARAM_MIP_Cuts_MIRCut                         -1
CPXPARAM_MIP_Cuts_Disjunctive                    -1
CPXPARAM_Preprocessing_Symmetry                  0
CPXPARAM_Preprocessing_RepeatPresolve            0
CPXPARAM_MIP_Strategy_FPHeur                     -1
CPXPARAM_MIP_Cuts_ZeroHalfCut                    -1
CPXPARAM_MIP_Cuts_LiftProj                       -1
CPXPARAM_Preprocessing_QPMakePSD                 0
CPXPARAM_Preprocessing_QToLin                    0
CPXPARAM_MIP_Strategy_HeuristicFreq              -1
CPXPARAM_MIP_Limits_CutPasses                    -1
CPXPARAM_MIP_Strategy_RINSHeur                   -1
CPXPARAM_TimeLimit                               1800
Tried aggregator 0 times.
Reduced MIQP has 0 rows, 63 columns, and 0 nonzeros.
Reduced MIQP has 63 binaries, 0 generals, 0 SOSs, and 0 indicators.
Reduced MIQP objective Q matrix has 1365 nonzeros.
Presolve time = 0.00 sec. (0.12 ticks)
MIP emphasis: balance optimality and feasibility.
MIP search method: dynamic search.
Parallel mode: deterministic, using up to 32 threads.
Root relaxation solution time = 0.00 sec. (1.19 ticks)

        Nodes                                         Cuts/
   Node  Left     Objective  IInf  Best Integer    Best Bound    ItCnt     Gap

      0     0     -416.5313    63                   -416.5313        7         
      0     2     -416.5313    63                   -416.5313        7         
Elapsed time = 0.07 sec. (1.67 ticks, tree = 0.02 MB, solutions = 0)
*   566    50      integral     0     -416.0000     -416.3950      256    0.09%

Root node processing (before b&c):
  Real time             =    0.01 sec. (1.41 ticks)
Parallel b&c, 32 threads:
  Real time             =    0.08 sec. (2.97 ticks)
  Sync time (average)   =    0.02 sec.
  Wait time (average)   =    0.00 sec.
                          ------------
Total (root+branch&cut) =    0.09 sec. (4.37 ticks)
